p cnf 1202 1293
c ind 817 818 819 832 839 865 926 927 940 947 0
c ind 951 953 956 972 974 977 989 990 1009 1011 0
c ind 1015 1026 1027 1031 1032 1033 1037 1039 810 925 0
c ind 840 852 811 812 924 815 816 923 1155 1156 0
c ind 1154 1153 1151 1187 1192 1169 1178 1152 1173 1183 0
c ind 1200 1186 1191 1168 1177 1172 1182 1199 1150 1145 0
c ind 1149 1148 1147 1185 1190 1167 1176 1171 1181 1198 0
c ind 1146 1184 1189 1166 1175 1170 1180 1197 1161 1165 0
c ind 1195 1143 1144 1142 1137 1141 1140 1139 1163 1193 0
c ind 1138 1194 1164 1188 1174 1179 1196 1135 1136 813 0
c ind 814 1128 1129 1134 1133 1132 1131 1130 1126 1127 0
c ind 1125 1162 1124 1122 1123 1158 1121 1116 1120 1119 0
c ind 1118 1117 1159 1114 1115 1113 1108 1112 1111 1110 0
c ind 1109 1106 1107 1099 1100 1105 1104 1103 1102 1101 0
c ind 1097 1098 1096 1095 1160 1093 1094 1092 1157 1087 0
c ind 1091 1090 1089 1088 1085 1086 1084 1079 1083 1082 0
c ind 1081 1080 1077 1078 1070 1071 1076 1075 1074 1073 0
c ind 1072 1068 1069 1067 1066 1064 1065 1063 1058 1062 0
c ind 1061 1060 1059 1056 1057 1055 1050 1054 1053 1052 0
c ind 1051 1048 1049 1041 1042 1047 1046 1045 1044 1043 0
c ind 1021 1022 1020 1019 1018 1040 1030 1028 1029 1017 0
c ind 1016 1038 1025 1014 1036 1034 1035 1023 1024 1013 0
c ind 1012 1005 1010 1008 1006 1007 1004 997 996 1003 0
c ind 1002 1001 1000 999 998 995 994 993 992 991 0
c ind 809 984 983 981 982 980 979 985 986 978 0
c ind 976 987 975 988 973 971 969 970 968 967 0
c ind 966 965 964 963 822 962 960 961 959 958 0
c ind 930 957 955 954 952 950 948 949 946 941 0
c ind 945 942 943 937 944 939 935 936 938 934 0
c ind 929 933 931 932 928 922 915 907 921 920 0
c ind 919 918 901 900 899 917 898 916 897 896 0
c ind 895 914 913 912 911 910 909 908 906 905 0
c ind 904 903 902 894 887 879 893 892 891 890 0
c ind 873 872 871 889 870 888 869 868 867 886 0
c ind 885 884 883 882 881 880 878 877 876 875 0
c ind 874 866 864 862 863 853 854 861 860 859 0
c ind 858 857 855 856 849 848 850 851 847 846 0
c ind 845 844 842 843 841 838 837 833 834 835 0
c ind 836 829 831 828 827 830 821 826 820 825 0
c ind 823 824 1 0
c ret 606 607 608 609 610 611 612 613 614 615 0
c ret 616 617 618 619 620 621 622 623 624 625 0
c ret 626 627 628 629 630 631 632 633 634 635 0
c ret 636 637 638 639 640 641 642 643 644 645 0
c ret 646 647 648 649 650 651 652 653 654 655 0
c ret 656 657 658 659 660 661 662 663 664 665 0
c ret 666 667 668 669 670 671 672 673 674 675 0
c ret 676 677 678 679 680 681 682 683 684 685 0
c ret 686 687 688 689 690 691 692 693 694 695 0
c ret 696 697 698 699 700 701 702 703 704 705 0
c ret 706 707 708 709 710 711 712 713 714 715 0
c ret 716 717 718 719 720 721 722 723 724 725 0
c ret 726 727 728 729 730 731 732 733 734 735 0
c ret 736 737 738 739 740 741 742 743 744 745 0
c ret 746 747 748 749 750 751 752 753 754 755 0
c ret 756 757 758 759 760 761 762 763 764 765 0
c ret 766 767 768 769 770 771 301 772 773 307 0
c ret 308 309 310 311 312 313 314 315 316 317 0
c ret 318 319 320 321 322 323 324 325 326 327 0
c ret 774 775 328 329 776 777 330 331 332 333 0
c ret 334 335 336 337 338 339 340 341 342 343 0
c ret 302 344 345 778 346 779 347 348 780 349 0
c ret 781 350 351 352 353 354 355 356 357 358 0
c ret 359 360 782 361 362 363 364 365 783 366 0
c ret 367 784 368 369 785 370 786 371 372 373 0
c ret 374 375 376 377 378 379 380 381 382 383 0
c ret 787 384 303 385 386 788 387 789 388 389 0
c ret 390 790 391 791 392 393 394 395 396 397 0
c ret 398 399 400 401 402 403 404 405 406 407 0
c ret 408 409 792 410 793 411 412 413 794 795 0
c ret 414 415 416 417 418 419 420 421 422 423 0
c ret 796 424 304 425 426 427 428 429 430 797 0
c ret 431 798 432 433 799 800 434 435 436 437 0
c ret 438 439 440 441 801 442 802 443 444 445 0
c ret 803 446 447 448 449 450 451 452 453 454 0
c ret 455 456 457 458 459 804 460 461 462 463 0
c ret 805 464 806 465 807 466 808 467 468 469 0
c ret 470 471 472 473 474 475 476 477 478 479 0
c ret 480 481 482 483 484 485 486 487 488 489 0
c ret 490 491 492 493 494 495 305 496 497 498 0
c ret 499 500 501 502 503 504 505 506 507 508 0
c ret 509 510 511 512 513 514 515 516 517 518 0
c ret 519 520 521 522 523 524 525 526 527 528 0
c ret 529 530 531 532 533 534 306 535 536 537 0
c ret 538 539 540 541 542 543 544 545 546 547 0
c ret 548 549 550 551 552 553 554 555 556 557 0
c ret 558 559 560 561 562 563 564 565 566 567 0
c ret 568 569 570 571 572 573 574 575 576 577 0
c ret 578 579 580 581 582 583 584 585 586 587 0
c ret 588 589 590 591 592 593 594 595 596 597 0
c ret 598 599 600 601 602 603 604 605 0
2 131 294 -295 0
2 3 294 -295 0
-2 295 0
-2 -294 0
-2 -3 -131 0
3 -4 -55 121 0
3 4 55 -111 0
3 4 55 121 0
3 -4 -55 -111 0
-3 4 -55 0
-3 -4 55 0
-3 111 -121 0
4 -5 -12 0
4 -5 49 0
-4 5 0
-4 12 -49 0
5 -6 8 0
5 -6 7 11 0
-5 6 0
-5 -7 -8 0
-5 -8 -11 0
6 -1070 -1099 -1128 0
-6 1070 0
-6 1099 0
-6 1128 0
7 1041 0
7 -1042 -1048 0
7 1042 -1049 0
-7 -1041 1042 1049 0
-7 -1041 -1042 1048 0
8 -9 -10 0
-7 8 -10 0
-8 10 0
7 -8 9 0
-7 9 0
9 1050 -1057 0
9 -1050 -1056 0
7 -9 -1050 1056 0
7 -9 1050 1057 0
10 1041 0
10 -1042 1048 0
10 1042 1049 0
-10 -1041 1042 -1049 0
-10 -1041 -1042 -1048 0
-7 11 0
11 -1050 1056 0
11 1050 1057 0
7 -11 -1050 -1056 0
7 -11 1050 -1057 0
12 -13 -48 -1178 0
12 13 -14 -48 0
-12 48 0
-12 -13 1178 0
-12 13 14 0
13 1036 -1038 0
-13 -1036 0
-13 1038 0
14 -15 -1177 0
14 15 -16 0
-14 -15 1177 0
-14 15 16 0
15 1008 -1010 0
-15 -1008 0
-15 1010 0
16 17 40 47 0
16 17 40 -43 0
-16 -17 0
-16 -40 0
-16 43 -47 0
17 -38 809 -984 0
17 18 809 984 0
-17 -809 0
-17 38 -984 0
-17 -18 984 0
18 -19 -1174 0
-18 1174 0
-18 19 0
19 -20 34 0
-19 20 0
-19 -34 0
20 -27 28 0
20 21 28 -874 0
-20 -28 0
-20 -21 27 0
-20 27 874 0
21 22 0
21 25 -873 0
21 25 879 0
-21 -22 -25 0
-21 -22 873 -879 0
22 -23 24 -867 -874 0
-22 23 0
-22 -24 0
-22 867 0
-22 874 0
23 868 869 870 0
-23 -868 0
-23 -870 0
-23 -869 0
24 871 -872 0
-24 -871 0
-24 872 0
25 26 873 879 -880 0
-25 -873 0
-25 -26 0
-25 880 0
-25 -879 0
26 887 888 0
-26 -887 0
-26 -888 0
23 27 -867 0
24 27 -867 -873 0
-27 867 0
-23 -27 873 0
-23 -24 -27 0
28 30 33 0
28 30 -32 0
28 29 30 0
-28 -30 0
-28 -29 32 -33 0
29 896 897 898 0
-29 -896 0
-29 -898 0
-29 -897 0
29 30 -895 0
30 31 -895 -901 0
-30 895 0
-29 -30 901 0
-29 -30 -31 0
31 899 -900 0
-31 -899 0
-31 900 0
32 907 908 0
32 907 915 916 0
-32 -907 0
-32 -908 -915 0
-32 -908 -916 0
31 33 -895 901 -902 0
-33 902 0
-31 -33 0
-33 895 0
-33 -901 0
34 -35 -841 0
34 -37 -841 0
34 -36 -841 0
-34 841 0
-34 35 36 37 0
35 -842 843 844 0
-35 842 0
-35 -844 0
-35 -843 0
36 847 850 851 0
-36 -847 0
-36 -851 0
-36 -850 0
37 -847 848 849 0
-37 847 0
-37 -849 0
-37 -848 0
38 -39 1175 0
18 38 39 0
-38 -39 -1175 0
-18 -38 39 0
39 950 -952 0
-39 -950 0
-39 952 0
40 -41 -42 -994 0
40 -41 -42 -995 0
-40 42 0
-40 41 0
-40 994 995 0
41 997 998 999 1000 0
-41 -1000 0
-41 -999 0
-41 -997 0
-41 -998 0
42 -991 -992 -993 996 0
-42 993 0
-42 -996 0
-42 991 0
-42 992 0
38 43 -44 0
-38 -43 0
-43 44 0
44 45 46 0
-44 -45 0
-44 -46 0
45 963 964 965 0
-45 -963 0
-45 -965 0
-45 -964 0
46 971 -973 0
-46 -971 0
-46 973 0
46 47 -809 0
47 -809 1176 0
-47 809 0
-46 -47 -1176 0
48 -1005 1012 0
-48 1005 0
-48 -1012 0
49 -50 -1005 0
14 16 49 0
14 49 -1005 0
16 49 -50 0
-16 -49 1005 0
-14 -49 50 0
50 52 1012 0
50 -51 52 0
50 52 1005 0
-50 -52 0
-50 51 -1005 -1012 0
51 -1013 1014 0
-51 1013 0
-51 -1014 0
52 53 -54 0
-52 -53 0
-52 54 0
53 1016 -1017 -1018 1019 0
-53 -1016 0
-53 -1019 0
-53 1018 0
-53 1017 0
54 -1005 -1012 -1013 1014 0
-54 1013 0
-54 -1014 0
-54 1005 0
-54 1012 0
55 -56 -66 0
55 -56 105 0
-55 56 0
-55 66 -105 0
56 -57 -59 0
-56 57 0
-56 59 0
57 -58 -620 -649 0
-57 620 0
-57 649 0
-57 58 0
58 -591 -678 -707 -736 0
-58 736 0
-58 591 0
-58 707 0
-58 678 0
59 60 -562 0
-59 562 0
-59 -60 0
60 -61 -62 0
60 -62 -65 0
-60 62 0
-60 61 65 0
61 533 0
61 -534 -540 0
61 534 -541 0
-61 -533 534 541 0
-61 -533 -534 540 0
-61 62 -63 0
62 -63 -64 0
-62 63 0
61 -62 64 0
63 533 0
63 -534 540 0
63 534 541 0
-63 -533 534 -541 0
-63 -533 -534 -540 0
-61 64 0
64 542 -549 0
64 -542 -548 0
61 -64 -542 548 0
61 -64 542 549 0
-61 65 0
65 -542 548 0
65 542 549 0
61 -65 -542 -548 0
61 -65 542 -549 0
66 -67 -104 -786 0
66 67 -68 -104 0
-66 104 0
-66 -67 786 0
-66 67 68 0
67 528 -530 0
-67 -528 0
-67 530 0
68 -69 -785 0
68 69 -70 0
-68 -69 785 0
-68 69 70 0
69 500 -502 0
-69 -500 0
-69 502 0
70 71 96 103 0
70 71 96 -99 0
-70 -71 0
-70 -96 0
-70 99 -103 0
71 -94 301 -476 0
71 72 301 476 0
-71 -301 0
-71 94 -476 0
-71 -72 476 0
72 -73 -782 0
-72 782 0
-72 73 0
73 74 -78 0
-73 -74 0
-73 78 0
74 -75 -333 0
74 -77 -333 0
74 -76 -333 0
-74 333 0
-74 75 76 77 0
75 -334 335 336 0
-75 334 0
-75 -336 0
-75 -335 0
76 339 342 343 0
-76 -339 0
-76 -343 0
-76 -342 0
77 -339 340 341 0
-77 339 0
-77 -341 0
-77 -340 0
78 79 -86 0
78 79 89 -366 0
-78 -79 0
-78 86 -89 0
-78 86 366 0
79 -80 83 0
79 83 387 0
-79 -83 0
-79 80 -387 0
80 -82 390 393 0
80 -81 -82 390 0
-80 -390 0
-80 82 0
-80 81 -393 0
81 391 -392 0
-81 -391 0
-81 392 0
82 388 389 0
-82 -388 0
-82 -389 0
81 -82 83 84 -85 0
82 -83 0
-83 -84 0
-81 -83 0
-83 85 0
84 399 400 0
84 399 407 408 0
-84 -399 0
-84 -400 -407 0
-84 -400 -408 0
85 -387 390 393 -394 0
-85 394 0
-85 -393 0
-85 387 0
-85 -390 0
86 87 -359 0
86 88 -359 -365 0
-86 359 0
-86 -87 365 0
-86 -87 -88 0
87 360 361 362 0
-87 -360 0
-87 -362 0
-87 -361 0
88 363 -364 0
-88 -363 0
-88 364 0
89 90 93 0
-89 -90 0
-89 -93 0
90 -91 -92 -379 0
90 -91 -92 -380 0
-90 92 0
-90 91 0
-90 379 380 0
-87 88 91 -359 -366 0
87 -91 0
-88 -91 0
-91 359 0
-91 366 0
92 365 371 -372 0
-92 372 0
-92 -371 0
-92 -365 0
-91 93 365 -371 0
91 -93 0
-93 371 0
-93 -365 0
94 -95 783 0
72 94 95 0
-94 -95 -783 0
-72 -94 95 0
95 442 -444 0
-95 -442 0
-95 444 0
96 -97 -98 -486 0
96 -97 -98 -487 0
-96 98 0
-96 97 0
-96 486 487 0
97 489 490 491 492 0
-97 -492 0
-97 -491 0
-97 -489 0
-97 -490 0
98 -483 -484 -485 488 0
-98 485 0
-98 -488 0
-98 483 0
-98 484 0
94 99 -100 0
-94 -99 0
-99 100 0
100 101 102 0
-100 -101 0
-100 -102 0
101 455 456 457 0
-101 -455 0
-101 -457 0
-101 -456 0
102 463 -465 0
-102 -463 0
-102 465 0
102 103 -301 0
103 -301 784 0
-103 301 0
-102 -103 -784 0
104 -497 504 0
-104 497 0
-104 -504 0
105 -106 -497 0
68 70 105 0
68 105 -497 0
70 105 -106 0
-70 -105 497 0
-68 -105 106 0
106 108 504 0
106 -107 108 0
106 108 497 0
-106 -108 0
-106 107 -497 -504 0
107 -505 506 0
-107 505 0
-107 -506 0
108 109 -110 0
-108 -109 0
-108 110 0
109 508 -509 -510 511 0
-109 -508 0
-109 -511 0
-109 510 0
-109 509 0
110 -497 -504 -505 506 0
-110 505 0
-110 -506 0
-110 497 0
-110 504 0
-5 111 -112 0
-5 111 120 0
5 -111 0
-111 112 -120 0
13 -48 112 -113 0
-13 -48 112 -1200 0
48 -112 0
13 -112 113 0
-13 -112 1200 0
-15 113 -1199 0
15 113 -114 0
-15 -113 1199 0
15 -113 114 0
40 114 115 119 0
40 114 115 -118 0
-40 -114 0
-114 -115 0
-114 118 -119 0
115 -117 809 -984 0
115 116 809 984 0
-115 -809 0
-115 117 -984 0
-115 -116 984 0
-19 116 -1196 0
-116 1196 0
19 -116 0
-39 117 1197 0
39 116 117 0
-39 -117 -1197 0
39 -116 -117 0
-44 117 118 0
44 -118 0
-117 -118 0
46 119 -809 0
119 -809 1198 0
-119 809 0
-46 -119 -1198 0
-50 114 120 0
113 120 -1005 0
-50 120 -1005 0
113 114 120 0
50 -113 -120 0
-114 -120 1005 0
-56 121 -122 0
-56 121 130 0
56 -121 0
-121 122 -130 0
67 -104 122 -123 0
-67 -104 122 -808 0
104 -122 0
67 -122 123 0
-67 -122 808 0
-69 123 -807 0
69 123 -124 0
-69 -123 807 0
69 -123 124 0
96 124 125 129 0
96 124 125 -128 0
-96 -124 0
-124 -125 0
-124 128 -129 0
125 -127 301 -476 0
125 126 301 476 0
-125 -301 0
-125 127 -476 0
-125 -126 476 0
-73 126 -804 0
-126 804 0
73 -126 0
-95 127 805 0
95 126 127 0
-95 -127 -805 0
95 -126 -127 0
-100 127 128 0
100 -128 0
-127 -128 0
102 129 -301 0
129 -301 806 0
-129 301 0
-102 -129 -806 0
-106 124 130 0
123 130 -497 0
-106 130 -497 0
123 124 130 0
106 -123 -130 0
-124 -130 497 0
131 132 141 -150 -273 0
131 -132 -141 -150 -273 0
-131 273 0
-131 -132 141 0
-131 150 0
-131 132 -141 0
-5 132 -133 0
-5 132 140 0
5 -132 0
-132 133 -140 0
13 -48 133 -134 0
-13 -48 133 -1173 0
48 -133 0
13 -133 134 0
-13 -133 1173 0
-15 134 -1172 0
15 134 -135 0
-15 -134 1172 0
15 -134 135 0
40 135 136 139 0
40 135 136 -138 0
-40 -135 0
-135 -136 0
-135 138 -139 0
136 -137 809 -984 0
19 136 809 984 0
-136 -809 0
-136 137 -984 0
-19 -136 984 0
-39 137 1170 0
19 39 137 0
-39 -137 -1170 0
-19 39 -137 0
-44 137 138 0
44 -138 0
-137 -138 0
46 139 -809 0
139 -809 1171 0
-139 809 0
-46 -139 -1171 0
-50 135 140 0
134 140 -1005 0
-50 140 -1005 0
134 135 140 0
50 -134 -140 0
-135 -140 1005 0
-56 141 -142 0
-56 141 149 0
56 -141 0
-141 142 -149 0
67 -104 142 -143 0
-67 -104 142 -781 0
104 -142 0
67 -142 143 0
-67 -142 781 0
-69 143 -780 0
69 143 -144 0
-69 -143 780 0
69 -143 144 0
96 144 145 148 0
96 144 145 -147 0
-96 -144 0
-144 -145 0
-144 147 -148 0
145 -146 301 -476 0
73 145 301 476 0
-145 -301 0
-145 146 -476 0
-73 -145 476 0
-95 146 778 0
73 95 146 0
-95 -146 -778 0
-73 95 -146 0
-100 146 147 0
100 -147 0
-146 -147 0
102 148 -301 0
148 -301 779 0
-148 301 0
-102 -148 -779 0
-106 144 149 0
143 149 -497 0
-106 149 -497 0
143 144 149 0
106 -143 -149 0
-144 -149 497 0
150 -151 -199 -253 -263 0
150 -151 -199 253 263 0
-150 199 0
-150 253 -263 0
-150 151 0
-150 -253 263 0
151 -152 -165 -190 0
151 152 165 181 0
151 152 165 -190 0
151 -152 -165 181 0
-151 152 -165 0
-151 -152 165 0
-151 -181 190 0
-5 152 -153 0
-5 152 -163 0
-5 152 -162 0
5 -152 0
-152 153 162 163 0
153 156 -157 0
-44 153 154 -157 0
-153 157 0
-153 -154 -156 0
44 -153 -156 0
-39 154 1180 0
39 154 155 0
-39 -154 -1180 0
39 -154 -155 0
-19 155 -1179 0
-155 1179 0
19 -155 0
46 156 -809 0
156 -809 1181 0
-156 809 0
-46 -156 -1181 0
157 -158 161 0
-157 158 0
-157 -161 0
40 158 159 0
-40 -158 0
-158 -159 0
-15 159 -1005 0
159 -160 -1005 0
-159 1005 0
15 -159 160 0
-13 52 160 1012 0
-51 52 160 -1012 0
-52 -160 0
51 -160 -1012 0
13 -160 1012 0
-154 161 809 -984 0
155 161 809 984 0
-161 -809 0
154 -161 -984 0
-155 -161 984 0
-13 -48 162 -1183 0
-162 1183 0
13 -162 0
48 -162 0
-15 163 -164 -1182 0
-163 1182 0
15 -163 0
-163 164 0
160 164 -1005 0
-164 1005 0
-160 -164 0
165 -166 -169 0
165 -166 -179 0
165 -166 -178 0
-165 166 0
-165 169 178 179 0
-57 60 166 168 0
-57 60 166 167 0
57 -166 0
-60 -166 0
-166 -167 -168 0
167 562 0
167 -563 -569 0
167 563 -570 0
-167 -562 563 570 0
-167 -562 -563 569 0
168 562 0
168 -563 569 0
168 563 570 0
-168 -562 563 -570 0
-168 -562 -563 -569 0
169 172 -173 0
-100 169 170 -173 0
-169 173 0
-169 -170 -172 0
100 -169 -172 0
-95 170 788 0
95 170 171 0
-95 -170 -788 0
95 -170 -171 0
-73 171 -787 0
-171 787 0
73 -171 0
102 172 -301 0
172 -301 789 0
-172 301 0
-102 -172 -789 0
173 -174 177 0
-173 174 0
-173 -177 0
96 174 175 0
-96 -174 0
-174 -175 0
-69 175 -497 0
175 -176 -497 0
-175 497 0
69 -175 176 0
-67 108 176 504 0
-107 108 176 -504 0
-108 -176 0
107 -176 -504 0
67 -176 504 0
-170 177 301 -476 0
171 177 301 476 0
-177 -301 0
170 -177 -476 0
-171 -177 476 0
-67 -104 178 -791 0
-178 791 0
67 -178 0
104 -178 0
-69 179 -180 -790 0
-179 790 0
69 -179 0
-179 180 0
176 180 -497 0
-180 497 0
-176 -180 0
-5 181 -182 0
-5 181 -189 0
-5 181 -188 0
5 -181 0
-181 182 188 189 0
182 185 -186 0
-44 182 183 -186 0
-182 186 0
-182 -183 -185 0
44 -182 -185 0
-39 183 1189 0
39 183 184 0
-39 -183 -1189 0
39 -183 -184 0
-19 184 -1188 0
-184 1188 0
19 -184 0
46 185 -809 0
185 -809 1190 0
-185 809 0
-46 -185 -1190 0
-158 186 187 0
158 -186 0
-186 -187 0
-183 187 809 -984 0
184 187 809 984 0
-187 -809 0
183 -187 -984 0
-184 -187 984 0
-13 -48 188 -1192 0
-188 1192 0
13 -188 0
48 -188 0
-15 -164 189 -1191 0
-189 1191 0
15 -189 0
164 -189 0
-166 190 -191 0
-166 190 -198 0
-166 190 -197 0
166 -190 0
-190 191 197 198 0
191 194 -195 0
-100 191 192 -195 0
-191 195 0
-191 -192 -194 0
100 -191 -194 0
-95 192 797 0
95 192 193 0
-95 -192 -797 0
95 -192 -193 0
-73 193 -796 0
-193 796 0
73 -193 0
102 194 -301 0
194 -301 798 0
-194 301 0
-102 -194 -798 0
-174 195 196 0
174 -195 0
-195 -196 0
-192 196 301 -476 0
193 196 301 476 0
-196 -301 0
192 -196 -476 0
-193 -196 476 0
-67 -104 197 -800 0
-197 800 0
67 -197 0
104 -197 0
-69 -180 198 -799 0
-198 799 0
69 -198 0
180 -198 0
199 200 -201 -236 -244 0
199 200 -201 236 244 0
-199 -200 0
-199 236 -244 0
-199 201 0
-199 -236 244 0
181 -190 200 0
-181 -200 0
190 -200 0
201 -202 -213 -224 0
201 202 213 -224 0
-201 224 0
-201 -202 213 0
-201 202 -213 0
202 -206 301 0
101 202 -203 -206 0
-202 206 0
-202 203 -301 0
-101 -202 -301 0
203 420 -803 0
203 -204 -420 0
-203 204 -420 0
-203 420 803 0
-78 204 -765 0
74 -78 204 205 0
78 -204 0
-204 -205 765 0
-74 -204 765 0
205 312 802 0
-205 -312 0
-205 -802 0
206 207 -210 0
-206 -207 0
-206 210 0
203 207 208 0
203 204 207 0
204 207 -208 301 0
-203 -207 208 0
-204 -207 -208 0
-203 -207 -301 0
208 -209 476 477 0
-208 209 0
-208 -477 0
-208 -476 0
209 478 479 480 0
-209 -478 0
-209 -480 0
-209 -479 0
-57 210 211 -212 -562 0
-210 212 0
-210 562 0
57 -210 0
-210 -211 0
-62 211 533 0
-62 -65 211 0
62 -211 0
65 -211 -533 0
96 110 212 0
96 109 212 0
-96 -212 0
-109 -110 -212 0
213 214 -220 -223 0
213 214 -220 809 0
-213 220 0
-213 -214 0
-213 223 -809 0
214 215 219 0
214 217 219 0
214 215 -217 809 0
-214 -215 -217 0
-214 217 -219 0
-214 -219 -809 0
-20 215 -1157 0
-20 34 215 216 0
20 -215 0
-215 -216 1157 0
-34 -215 1157 0
216 820 1194 0
-216 -820 0
-216 -1194 0
217 -218 984 985 0
-217 218 0
-217 -985 0
-217 -984 0
218 986 987 988 0
-218 -986 0
-218 -988 0
-218 -987 0
219 928 -1195 0
-215 219 -928 0
215 -219 -928 0
-219 928 1195 0
8 220 -221 0
11 220 -221 -1041 0
-220 221 0
-8 -11 -220 0
-8 -220 1041 0
-6 221 -222 0
6 -221 0
-221 222 0
40 54 222 0
40 53 222 0
-40 -222 0
-53 -54 -222 0
45 -219 223 0
-45 -223 0
219 -223 0
224 225 228 230 -231 0
224 -225 -228 230 -231 0
-224 -230 0
-224 225 -228 0
-224 231 0
-224 -225 228 0
-78 -210 225 226 -227 0
-225 227 0
78 -225 0
210 -225 0
-225 -226 0
-101 226 -301 0
-226 301 0
101 -226 0
227 -765 767 0
-227 765 0
-227 -767 0
-220 228 -229 809 0
45 -220 228 -229 0
-228 229 0
220 -228 0
-45 -228 -809 0
-20 229 -1157 1159 0
-229 1157 0
-229 -1159 0
20 -229 0
-9 -10 -11 230 0
9 -230 0
10 -230 0
11 -230 0
21 28 231 -232 0
-27 28 231 -232 0
-231 232 0
-28 -231 0
-21 27 -231 0
34 -222 232 233 -234 0
222 -232 0
-232 -233 0
-34 -232 0
-232 234 0
-45 233 -809 0
-233 809 0
45 -233 0
-6 234 235 -813 0
-6 234 235 814 0
6 -234 0
-234 -235 0
-234 813 -814 0
235 811 812 0
-235 -811 0
-235 -812 0
236 -240 809 0
45 236 237 -240 0
-236 240 0
-236 -237 -809 0
-45 -236 -809 0
237 238 -928 0
-229 237 928 1165 0
-237 928 -1165 0
-237 -238 -928 0
229 -237 928 0
-20 238 -239 0
20 -238 0
-238 239 0
239 -1157 -1159 0
34 239 1157 0
239 -1157 -1163 0
-34 -239 1157 0
-239 -1157 1159 1163 0
-220 240 -241 242 0
-220 237 240 242 0
220 -240 0
-240 -242 0
-237 -240 241 0
241 984 985 0
-241 -984 0
-241 -985 0
238 242 -243 0
218 -237 242 0
218 242 -243 0
-237 238 242 0
237 -242 243 0
-218 -238 -242 0
-217 243 809 0
-243 -809 0
217 -243 0
244 -249 301 0
101 244 245 -249 0
-244 249 0
-244 -245 -301 0
-101 -244 -301 0
245 246 -420 0
-78 245 -248 420 0
-245 -246 -420 0
78 -245 420 0
-245 248 420 0
-78 246 -247 0
78 -246 0
-246 247 0
247 -765 -767 0
74 247 765 0
247 -765 -771 0
-74 -247 765 0
-247 -765 767 771 0
248 -765 767 773 0
-248 765 0
-248 -773 0
-248 -767 0
-210 249 -250 251 0
-210 245 249 251 0
210 -249 0
-249 -251 0
-245 -249 250 0
250 476 477 0
-250 -476 0
-250 -477 0
246 251 -252 0
209 -245 251 0
209 251 -252 0
-245 246 251 0
245 -251 252 0
-209 -246 -251 0
-208 252 301 0
-252 -301 0
208 -252 0
-5 159 253 254 0
-5 253 254 262 0
5 -253 0
-253 -254 0
-159 -253 -262 0
254 256 1005 0
15 254 255 256 0
-254 -256 0
-254 -255 -1005 0
-15 -254 -1005 0
-13 255 1012 -1187 0
13 -255 0
-255 1187 0
-255 -1012 0
40 256 257 261 0
40 256 257 -260 0
-40 -256 0
-256 -257 0
-256 260 -261 0
257 -259 809 -984 0
257 258 809 984 0
-257 -809 0
-257 259 -984 0
-257 -258 984 0
-19 258 -813 0
-258 813 0
19 -258 0
-39 259 1184 0
39 258 259 0
-39 -259 -1184 0
39 -258 -259 0
-44 259 260 0
44 -260 0
-259 -260 0
46 261 -809 0
261 -809 1185 0
-261 809 0
-46 -261 -1185 0
-160 255 262 0
255 262 1186 0
-255 -262 0
160 -262 -1186 0
-57 -59 263 264 272 0
59 -263 0
-263 -272 0
57 -263 0
-263 -264 0
264 266 497 0
69 264 265 266 0
-264 -266 0
-264 -265 -497 0
-69 -264 -497 0
-67 265 504 -795 0
67 -265 0
-265 795 0
-265 -504 0
96 266 267 271 0
96 266 267 -270 0
-96 -266 0
-266 -267 0
-266 270 -271 0
267 -269 301 -476 0
267 268 301 476 0
-267 -301 0
-267 269 -476 0
-267 -268 476 0
-73 268 -305 0
-268 305 0
73 -268 0
-95 269 792 0
95 268 269 0
-95 -269 -792 0
95 -268 -269 0
-100 269 270 0
100 -270 0
-269 -270 0
102 271 -301 0
271 -301 793 0
-271 301 0
-102 -271 -793 0
-175 -176 265 272 0
-175 265 272 794 0
175 -272 0
-265 -272 0
176 -272 -794 0
111 273 -274 -284 0
-121 273 274 284 0
111 273 274 284 0
-121 273 -274 -284 0
-273 274 -284 0
-273 -274 284 0
-111 121 -273 0
-5 274 -275 0
-5 274 283 0
5 -274 0
-274 275 -283 0
13 -48 275 -276 0
-13 -48 275 -1169 0
48 -275 0
13 -275 276 0
-13 -275 1169 0
-15 276 -1168 0
15 276 -277 0
-15 -276 1168 0
15 -276 277 0
40 277 278 282 0
40 277 278 -281 0
-40 -277 0
-277 -278 0
-277 281 -282 0
278 279 -809 1167 0
46 278 279 -809 0
-278 809 0
-278 -279 0
-46 -278 -1167 0
-44 279 280 0
44 -279 0
-279 -280 0
19 39 280 0
-39 280 1166 0
39 280 814 0
-39 -280 -1166 0
-19 39 -280 -814 0
-19 39 281 -814 0
-19 281 -814 984 0
19 -281 0
-281 814 0
-39 -281 -984 0
282 809 1166 0
282 809 984 0
39 282 809 0
-282 -809 0
-39 -282 -984 -1166 0
-50 277 283 0
276 283 -1005 0
-50 283 -1005 0
276 277 283 0
50 -276 -283 0
-277 -283 1005 0
-56 284 -285 0
-56 284 293 0
56 -284 0
-284 285 -293 0
67 -104 285 -286 0
-67 -104 285 -777 0
104 -285 0
67 -285 286 0
-67 -285 777 0
-69 286 -776 0
69 286 -287 0
-69 -286 776 0
69 -286 287 0
96 287 288 292 0
96 287 288 -291 0
-96 -287 0
-287 -288 0
-287 291 -292 0
288 289 -301 775 0
102 288 289 -301 0
-288 301 0
-288 -289 0
-102 -288 -775 0
-100 289 290 0
100 -289 0
-289 -290 0
73 95 290 0
-95 290 774 0
95 290 306 0
-95 -290 -774 0
-73 95 -290 -306 0
-73 95 291 -306 0
-73 291 -306 476 0
73 -291 0
-291 306 0
-95 -291 -476 0
292 301 774 0
292 301 476 0
95 292 301 0
-292 -301 0
-95 -292 -476 -774 0
-106 287 293 0
286 293 -497 0
-106 293 -497 0
286 287 293 0
106 -286 -293 0
-287 -293 497 0
-63 -64 -65 294 0
63 -294 0
64 -294 0
65 -294 0
-86 295 -296 0
-90 295 -296 0
-93 295 -296 0
-295 296 0
86 90 93 -295 0
74 79 -212 296 -297 0
-74 -296 0
-296 297 0
212 -296 0
-79 -296 0
226 297 -298 -299 -300 0
-226 -297 0
-297 300 0
-297 299 0
-297 298 0
298 -678 -707 -736 0
-298 678 0
-298 707 0
-298 736 0
299 -562 -591 -620 -649 0
-299 649 0
-299 562 0
-299 620 0
-299 591 0
300 -304 -305 0
300 -303 306 0
300 -303 -305 0
300 -304 306 0
-300 305 -306 0
-300 303 304 0
1 2 0
-1 -2 0
1201 0

